language Essence 1.3

letting blksize_delta be
        function(1 --> 9, 2 --> 7, 3 --> 7, 4 --> 7, 5 --> 7, 6 --> 7, 7 --> 7, 8 --> 7, 9 --> 7, 10 --> 7, 11 --> 7,
                 12 --> 7, 13 --> 9, 14 --> 7, 15 --> 7, 16 --> 7, 17 --> 7, 18 --> 7, 19 --> 9, 20 --> 9, 21 --> 8,
                 22 --> 7, 23 --> 7, 24 --> 7, 25 --> 7)
letting maxcars be
        function(1 --> 9, 2 --> 7, 3 --> 7, 4 --> 7, 5 --> 7, 6 --> 7, 7 --> 7, 8 --> 7, 9 --> 7, 10 --> 9, 11 --> 7,
                 12 --> 7, 13 --> 7, 14 --> 7, 15 --> 7, 16 --> 7, 17 --> 7, 18 --> 7, 19 --> 7, 20 --> 7, 21 --> 7,
                 22 --> 7, 23 --> 7, 24 --> 7, 25 --> 7)
letting n_cars be 180
letting n_classes be 32
letting n_options be 25
letting quantity be
        function(1 --> 3, 2 --> 3, 3 --> 3, 4 --> 3, 5 --> 3, 6 --> 3, 7 --> 39, 8 --> 31, 9 --> 3, 10 --> 3, 11 --> 3,
                 12 --> 3, 13 --> 3, 14 --> 3, 15 --> 3, 16 --> 3, 17 --> 3, 18 --> 16, 19 --> 3, 20 --> 9, 21 --> 3,
                 22 --> 3, 23 --> 3, 24 --> 3, 25 --> 4, 26 --> 3, 27 --> 3, 28 --> 3, 29 --> 3, 30 --> 3, 31 --> 3,
                 32 --> 3)
letting usage be
        relation((1, 23), (2, 3), (2, 10), (2, 14), (3, 9), (3, 15), (4, 8), (4, 15), (4, 20), (5, 16), (6, 12),
                 (7, 12), (7, 14), (7, 15), (7, 17), (7, 19), (8, 22), (9, 5), (9, 12), (10, 10), (10, 18), (11, 2),
                 (11, 5), (12, 4), (12, 23), (13, 8), (13, 22), (14, 25), (15, 25), (16, 1), (17, 3), (17, 18), (18, 4),
                 (18, 20), (18, 21), (19, 1), (19, 8), (19, 13), (19, 24), (20, 2), (20, 21), (21, 2), (21, 12),
                 (22, 6), (22, 9), (22, 11), (23, 7), (23, 10), (23, 13), (23, 22), (24, 1), (24, 7), (25, 13),
                 (25, 14), (25, 15), (25, 19), (26, 6), (26, 11), (26, 17), (26, 19), (27, 5), (27, 8), (27, 9),
                 (27, 10), (27, 17), (28, 1), (28, 8), (28, 16), (28, 22), (29, 6), (29, 7), (30, 3), (30, 7), (30, 12),
                 (30, 13), (31, 16), (31, 25), (32, 1), (32, 3), (32, 16))
$ Visualisation for usage
$  1 23
$  2  3
$  2 10
$  2 14
$  3  9
$  3 15
$  4  8
$  4 15
$  4 20
$  5 16
$  6 12
$  7 12
$  7 14
$  7 15
$  7 17
$  7 19
$  8 22
$  9  5
$  9 12
$ 10 10
$ 10 18
$ 11  2
$ 11  5
$ 12  4
$ 12 23
$ 13  8
$ 13 22
$ 14 25
$ 15 25
$ 16  1
$ 17  3
$ 17 18
$ 18  4
$ 18 20
$ 18 21
$ 19  1
$ 19  8
$ 19 13
$ 19 24
$ 20  2
$ 20 21
$ 21  2
$ 21 12
$ 22  6
$ 22  9
$ 22 11
$ 23  7
$ 23 10
$ 23 13
$ 23 22
$ 24  1
$ 24  7
$ 25 13
$ 25 14
$ 25 15
$ 25 19
$ 26  6
$ 26 11
$ 26 17
$ 26 19
$ 27  5
$ 27  8
$ 27  9
$ 27 10
$ 27 17
$ 28  1
$ 28  8
$ 28 16
$ 28 22
$ 29  6
$ 29  7
$ 30  3
$ 30  7
$ 30 12
$ 30 13
$ 31 16
$ 31 25
$ 32  1
$ 32  3
$ 32 16

